c File: data_files/evolved_graphs/g0188.col
c
c Auto generated graph
c
p edge 100 1937
e 1 3
e 1 4
e 1 5
e 1 6
e 1 7
e 1 10
e 1 11
e 1 12
e 1 13
e 1 15
e 1 16
e 1 17
e 1 20
e 1 25
e 1 27
e 1 28
e 1 30
e 1 31
e 1 32
e 1 33
e 1 34
e 1 35
e 1 36
e 1 37
e 1 38
e 1 39
e 1 40
e 1 42
e 1 43
e 1 44
e 1 45
e 1 49
e 1 50
e 1 51
e 1 52
e 1 53
e 1 54
e 1 55
e 1 56
e 1 57
e 1 58
e 1 59
e 1 60
e 1 61
e 1 62
e 1 63
e 1 64
e 1 65
e 1 66
e 1 67
e 1 71
e 1 74
e 1 79
e 1 81
e 1 86
e 1 95
e 1 96
e 1 100
e 2 4
e 2 5
e 2 6
e 2 10
e 2 11
e 2 12
e 2 13
e 2 14
e 2 15
e 2 16
e 2 17
e 2 18
e 2 25
e 2 26
e 2 27
e 2 28
e 2 29
e 2 30
e 2 31
e 2 32
e 2 33
e 2 34
e 2 35
e 2 36
e 2 38
e 2 40
e 2 41
e 2 43
e 2 46
e 2 47
e 2 49
e 2 50
e 2 51
e 2 52
e 2 53
e 2 54
e 2 55
e 2 57
e 2 58
e 2 60
e 2 61
e 2 62
e 2 63
e 2 64
e 2 65
e 2 66
e 2 67
e 2 68
e 2 91
e 2 96
e 2 97
e 2 100
e 3 5
e 3 13
e 3 14
e 3 15
e 3 16
e 3 17
e 3 18
e 3 19
e 3 25
e 3 26
e 3 27
e 3 28
e 3 30
e 3 31
e 3 32
e 3 33
e 3 34
e 3 36
e 3 37
e 3 38
e 3 39
e 3 40
e 3 41
e 3 42
e 3 43
e 3 44
e 3 45
e 3 46
e 3 47
e 3 48
e 3 50
e 3 51
e 3 52
e 3 53
e 3 54
e 3 55
e 3 56
e 3 57
e 3 58
e 3 59
e 3 60
e 3 61
e 3 62
e 3 63
e 3 64
e 3 65
e 3 66
e 3 67
e 3 68
e 3 73
e 3 74
e 3 82
e 4 7
e 4 11
e 4 12
e 4 13
e 4 15
e 4 16
e 4 17
e 4 18
e 4 19
e 4 20
e 4 21
e 4 27
e 4 31
e 4 32
e 4 33
e 4 34
e 4 35
e 4 36
e 4 37
e 4 38
e 4 39
e 4 41
e 4 42
e 4 43
e 4 44
e 4 46
e 4 66
e 4 74
e 4 79
e 5 6
e 5 7
e 5 9
e 5 10
e 5 11
e 5 12
e 5 13
e 5 14
e 5 15
e 5 16
e 5 17
e 5 18
e 5 19
e 5 20
e 5 21
e 5 22
e 5 23
e 5 24
e 5 25
e 5 26
e 5 27
e 5 29
e 5 30
e 5 31
e 5 32
e 5 34
e 5 35
e 5 36
e 5 37
e 5 38
e 5 39
e 5 40
e 5 41
e 5 42
e 5 43
e 5 44
e 5 72
e 5 75
e 5 77
e 5 78
e 5 79
e 6 10
e 6 14
e 6 15
e 6 16
e 6 17
e 6 18
e 6 19
e 6 20
e 6 21
e 6 22
e 6 23
e 6 25
e 6 26
e 6 27
e 6 28
e 6 29
e 6 30
e 6 31
e 6 32
e 6 33
e 6 34
e 6 35
e 6 36
e 6 37
e 6 38
e 6 39
e 6 41
e 6 42
e 6 43
e 6 44
e 6 45
e 6 47
e 6 49
e 6 50
e 6 52
e 6 53
e 6 54
e 6 55
e 6 56
e 6 57
e 6 58
e 6 59
e 6 60
e 6 61
e 6 62
e 6 64
e 6 65
e 6 70
e 7 14
e 7 18
e 7 19
e 7 20
e 7 21
e 7 22
e 7 23
e 7 24
e 7 25
e 7 26
e 7 27
e 7 28
e 7 29
e 7 30
e 7 31
e 7 32
e 7 33
e 7 34
e 7 35
e 7 36
e 7 37
e 7 38
e 7 39
e 7 41
e 7 42
e 7 43
e 7 44
e 7 47
e 7 48
e 7 49
e 7 50
e 7 51
e 7 52
e 7 53
e 7 54
e 7 55
e 7 56
e 7 57
e 7 58
e 7 59
e 7 60
e 7 61
e 7 62
e 7 66
e 7 69
e 8 9
e 8 14
e 8 18
e 8 19
e 8 20
e 8 21
e 8 22
e 8 23
e 8 24
e 8 25
e 8 26
e 8 27
e 8 28
e 8 29
e 8 30
e 8 31
e 8 32
e 8 33
e 8 34
e 8 35
e 8 36
e 8 37
e 8 38
e 8 39
e 8 40
e 8 41
e 8 42
e 8 43
e 8 44
e 8 47
e 8 48
e 8 52
e 8 54
e 8 55
e 8 56
e 8 57
e 8 58
e 8 59
e 8 60
e 8 62
e 8 63
e 8 65
e 9 14
e 9 18
e 9 19
e 9 20
e 9 21
e 9 22
e 9 23
e 9 24
e 9 25
e 9 26
e 9 27
e 9 28
e 9 29
e 9 30
e 9 31
e 9 32
e 9 33
e 9 34
e 9 35
e 9 36
e 9 37
e 9 38
e 9 39
e 9 40
e 9 41
e 9 42
e 9 43
e 9 44
e 9 45
e 9 47
e 9 51
e 9 52
e 9 53
e 9 54
e 9 55
e 9 56
e 9 57
e 9 58
e 9 60
e 9 61
e 9 62
e 9 71
e 10 14
e 10 18
e 10 20
e 10 21
e 10 22
e 10 23
e 10 24
e 10 25
e 10 26
e 10 27
e 10 28
e 10 29
e 10 30
e 10 31
e 10 32
e 10 33
e 10 34
e 10 35
e 10 36
e 10 37
e 10 38
e 10 39
e 10 40
e 10 41
e 10 42
e 10 43
e 10 44
e 10 49
e 10 50
e 10 52
e 10 53
e 10 54
e 10 55
e 10 57
e 10 58
e 10 59
e 10 60
e 10 61
e 10 62
e 10 75
e 11 14
e 11 18
e 11 19
e 11 20
e 11 22
e 11 23
e 11 24
e 11 25
e 11 26
e 11 27
e 11 28
e 11 29
e 11 30
e 11 31
e 11 32
e 11 33
e 11 34
e 11 35
e 11 36
e 11 37
e 11 38
e 11 39
e 11 40
e 11 41
e 11 42
e 11 43
e 11 44
e 11 49
e 11 52
e 11 53
e 11 54
e 11 55
e 11 56
e 11 57
e 11 58
e 11 60
e 11 61
e 11 62
e 12 14
e 12 15
e 12 18
e 12 19
e 12 20
e 12 21
e 12 22
e 12 23
e 12 24
e 12 25
e 12 26
e 12 27
e 12 28
e 12 29
e 12 30
e 12 31
e 12 32
e 12 33
e 12 34
e 12 35
e 12 36
e 12 37
e 12 38
e 12 39
e 12 40
e 12 41
e 12 42
e 12 43
e 12 44
e 12 46
e 12 48
e 12 52
e 12 53
e 12 54
e 12 55
e 12 56
e 12 57
e 12 58
e 12 59
e 12 60
e 12 61
e 12 62
e 12 80
e 13 14
e 13 18
e 13 19
e 13 20
e 13 21
e 13 22
e 13 23
e 13 24
e 13 25
e 13 26
e 13 27
e 13 28
e 13 29
e 13 30
e 13 31
e 13 32
e 13 33
e 13 34
e 13 35
e 13 36
e 13 37
e 13 38
e 13 39
e 13 40
e 13 41
e 13 42
e 13 43
e 13 44
e 13 45
e 13 46
e 13 48
e 13 49
e 13 52
e 13 53
e 13 54
e 13 55
e 13 56
e 13 57
e 13 58
e 13 61
e 13 62
e 14 18
e 14 19
e 14 20
e 14 21
e 14 22
e 14 23
e 14 24
e 14 25
e 14 26
e 14 27
e 14 28
e 14 29
e 14 30
e 14 31
e 14 32
e 14 33
e 14 34
e 14 35
e 14 36
e 14 37
e 14 38
e 14 39
e 14 40
e 14 41
e 14 42
e 14 43
e 14 44
e 14 45
e 14 46
e 14 47
e 14 49
e 14 52
e 14 53
e 14 54
e 14 55
e 14 57
e 14 58
e 14 59
e 14 60
e 14 61
e 15 18
e 15 19
e 15 20
e 15 21
e 15 22
e 15 23
e 15 24
e 15 25
e 15 26
e 15 27
e 15 28
e 15 29
e 15 30
e 15 31
e 15 32
e 15 33
e 15 34
e 15 35
e 15 36
e 15 37
e 15 38
e 15 39
e 15 40
e 15 41
e 15 42
e 15 43
e 15 44
e 15 45
e 15 51
e 15 52
e 15 53
e 15 54
e 15 55
e 15 56
e 15 57
e 15 58
e 15 59
e 15 60
e 15 61
e 15 62
e 15 68
e 16 22
e 16 23
e 16 24
e 16 25
e 16 26
e 16 27
e 16 28
e 16 29
e 16 30
e 16 31
e 16 32
e 16 33
e 16 34
e 16 35
e 16 36
e 16 37
e 16 38
e 16 39
e 16 40
e 16 41
e 16 42
e 16 43
e 16 44
e 16 49
e 16 52
e 16 53
e 16 54
e 16 55
e 16 56
e 16 57
e 16 58
e 16 60
e 16 61
e 16 62
e 16 66
e 16 67
e 17 22
e 17 23
e 17 24
e 17 25
e 17 26
e 17 27
e 17 28
e 17 29
e 17 30
e 17 31
e 17 32
e 17 33
e 17 34
e 17 35
e 17 36
e 17 37
e 17 38
e 17 39
e 17 40
e 17 41
e 17 42
e 17 43
e 17 44
e 17 46
e 17 47
e 17 52
e 17 53
e 17 54
e 17 55
e 17 56
e 17 57
e 17 58
e 17 60
e 17 61
e 17 62
e 17 76
e 18 35
e 18 36
e 18 37
e 18 38
e 18 39
e 18 40
e 18 41
e 18 42
e 18 43
e 18 44
e 18 45
e 18 46
e 18 47
e 18 48
e 18 49
e 18 50
e 18 51
e 18 52
e 18 53
e 18 54
e 18 55
e 18 56
e 18 57
e 18 58
e 18 59
e 18 60
e 18 61
e 18 62
e 18 63
e 18 64
e 18 65
e 18 66
e 18 67
e 18 68
e 18 69
e 18 70
e 18 71
e 18 72
e 18 73
e 18 74
e 18 75
e 18 76
e 18 77
e 18 78
e 18 79
e 18 80
e 18 81
e 18 83
e 18 84
e 18 85
e 18 86
e 18 87
e 18 88
e 18 89
e 18 90
e 18 91
e 19 34
e 19 35
e 19 36
e 19 37
e 19 38
e 19 39
e 19 40
e 19 41
e 19 42
e 19 43
e 19 44
e 19 45
e 19 46
e 19 47
e 19 48
e 19 49
e 19 50
e 19 51
e 19 52
e 19 53
e 19 54
e 19 56
e 19 57
e 19 58
e 19 59
e 19 60
e 19 61
e 19 62
e 19 63
e 19 65
e 19 66
e 19 67
e 19 68
e 19 69
e 19 70
e 19 71
e 19 72
e 19 73
e 19 74
e 19 75
e 19 76
e 19 77
e 19 78
e 19 79
e 19 80
e 19 82
e 19 83
e 19 84
e 19 85
e 19 86
e 19 87
e 19 88
e 19 89
e 19 90
e 19 91
e 20 24
e 20 34
e 20 35
e 20 36
e 20 37
e 20 38
e 20 39
e 20 40
e 20 41
e 20 42
e 20 43
e 20 44
e 20 45
e 20 46
e 20 47
e 20 48
e 20 49
e 20 50
e 20 51
e 20 52
e 20 53
e 20 54
e 20 55
e 20 56
e 20 57
e 20 58
e 20 59
e 20 60
e 20 61
e 20 62
e 20 63
e 20 64
e 20 65
e 20 66
e 20 67
e 20 68
e 20 69
e 20 70
e 20 71
e 20 72
e 20 73
e 20 74
e 20 75
e 20 76
e 20 77
e 20 78
e 20 79
e 20 80
e 20 81
e 20 82
e 20 83
e 20 84
e 20 85
e 20 86
e 20 87
e 20 88
e 20 89
e 20 90
e 20 91
e 21 24
e 21 34
e 21 35
e 21 36
e 21 37
e 21 38
e 21 39
e 21 40
e 21 41
e 21 42
e 21 43
e 21 44
e 21 45
e 21 46
e 21 47
e 21 48
e 21 49
e 21 51
e 21 52
e 21 53
e 21 54
e 21 55
e 21 56
e 21 57
e 21 58
e 21 59
e 21 60
e 21 61
e 21 62
e 21 63
e 21 64
e 21 65
e 21 66
e 21 67
e 21 68
e 21 69
e 21 70
e 21 71
e 21 72
e 21 73
e 21 74
e 21 75
e 21 76
e 21 77
e 21 78
e 21 79
e 21 80
e 21 81
e 21 82
e 21 83
e 21 84
e 21 85
e 21 86
e 21 87
e 21 88
e 21 89
e 21 90
e 21 91
e 21 92
e 21 93
e 21 94
e 21 95
e 21 96
e 21 97
e 21 98
e 21 100
e 22 24
e 22 31
e 22 32
e 22 33
e 22 34
e 22 35
e 22 36
e 22 37
e 22 38
e 22 39
e 22 40
e 22 41
e 22 42
e 22 43
e 22 44
e 22 45
e 22 46
e 22 47
e 22 48
e 22 49
e 22 51
e 22 52
e 22 53
e 22 54
e 22 55
e 22 56
e 22 57
e 22 58
e 22 59
e 22 60
e 22 61
e 22 62
e 22 63
e 22 64
e 22 65
e 22 66
e 22 67
e 22 68
e 22 69
e 22 70
e 22 71
e 22 72
e 22 73
e 22 74
e 22 75
e 22 76
e 22 77
e 22 78
e 22 79
e 22 80
e 22 81
e 22 82
e 22 83
e 22 84
e 22 85
e 22 86
e 22 87
e 22 88
e 22 89
e 22 90
e 22 91
e 22 93
e 22 95
e 22 96
e 22 97
e 22 98
e 22 99
e 22 100
e 23 24
e 23 31
e 23 32
e 23 33
e 23 34
e 23 35
e 23 36
e 23 37
e 23 38
e 23 39
e 23 40
e 23 41
e 23 42
e 23 43
e 23 45
e 23 47
e 23 48
e 23 49
e 23 50
e 23 51
e 23 52
e 23 53
e 23 54
e 23 55
e 23 56
e 23 57
e 23 58
e 23 59
e 23 60
e 23 61
e 23 62
e 23 63
e 23 64
e 23 65
e 23 66
e 23 67
e 23 68
e 23 69
e 23 70
e 23 71
e 23 72
e 23 73
e 23 74
e 23 75
e 23 76
e 23 77
e 23 78
e 23 79
e 23 80
e 23 81
e 23 82
e 23 83
e 23 84
e 23 85
e 23 86
e 23 87
e 23 88
e 23 89
e 23 90
e 23 91
e 23 92
e 23 93
e 23 94
e 23 95
e 23 97
e 23 98
e 23 99
e 23 100
e 24 31
e 24 32
e 24 33
e 24 34
e 24 35
e 24 36
e 24 37
e 24 38
e 24 39
e 24 40
e 24 41
e 24 42
e 24 43
e 24 44
e 24 45
e 24 46
e 24 47
e 24 48
e 24 49
e 24 50
e 24 51
e 24 52
e 24 53
e 24 54
e 24 55
e 24 56
e 24 57
e 24 58
e 24 59
e 24 60
e 24 61
e 24 62
e 24 63
e 24 64
e 24 65
e 24 66
e 24 67
e 24 68
e 24 69
e 24 70
e 24 71
e 24 72
e 24 73
e 24 74
e 24 75
e 24 76
e 24 77
e 24 78
e 24 79
e 24 80
e 24 81
e 24 82
e 24 83
e 24 84
e 24 85
e 24 86
e 24 87
e 24 88
e 24 89
e 24 90
e 24 91
e 24 92
e 24 94
e 24 95
e 24 96
e 24 98
e 24 99
e 25 79
e 25 80
e 25 81
e 25 82
e 25 83
e 25 84
e 25 85
e 25 86
e 25 92
e 25 93
e 25 94
e 25 95
e 25 96
e 25 99
e 25 100
e 26 70
e 26 79
e 26 80
e 26 81
e 26 82
e 26 83
e 26 84
e 26 85
e 26 86
e 26 93
e 26 95
e 26 96
e 26 97
e 26 99
e 26 100
e 27 79
e 27 80
e 27 81
e 27 82
e 27 83
e 27 84
e 27 85
e 27 86
e 27 92
e 27 93
e 27 94
e 27 95
e 27 96
e 27 97
e 27 98
e 27 99
e 27 100
e 28 79
e 28 80
e 28 81
e 28 82
e 28 83
e 28 84
e 28 85
e 28 86
e 28 92
e 28 93
e 28 94
e 28 96
e 28 97
e 28 98
e 28 99
e 29 79
e 29 80
e 29 81
e 29 82
e 29 83
e 29 84
e 29 85
e 29 86
e 29 93
e 29 94
e 29 97
e 29 98
e 29 100
e 30 54
e 30 79
e 30 80
e 30 81
e 30 82
e 30 83
e 30 84
e 30 85
e 30 86
e 30 92
e 30 93
e 30 94
e 30 95
e 30 96
e 30 97
e 30 98
e 30 99
e 30 100
e 31 92
e 31 94
e 31 96
e 31 97
e 31 98
e 31 99
e 31 100
e 32 69
e 32 92
e 32 93
e 32 94
e 32 95
e 32 96
e 32 97
e 32 98
e 32 99
e 32 100
e 33 70
e 33 71
e 33 72
e 33 73
e 33 93
e 33 94
e 33 95
e 33 96
e 33 97
e 33 98
e 33 99
e 34 93
e 34 95
e 34 97
e 34 98
e 34 100
e 35 93
e 35 94
e 35 95
e 35 97
e 35 98
e 35 99
e 35 100
e 38 91
e 42 72
e 42 73
e 42 74
e 42 75
e 42 76
e 42 77
e 42 78
e 42 79
e 42 80
e 42 81
e 43 72
e 43 73
e 43 74
e 43 75
e 43 76
e 43 77
e 43 78
e 43 79
e 43 80
e 43 81
e 44 72
e 44 73
e 44 74
e 44 75
e 44 76
e 44 77
e 44 78
e 44 79
e 44 80
e 44 81
e 44 92
e 45 72
e 45 73
e 45 74
e 45 75
e 45 76
e 45 77
e 45 78
e 45 79
e 45 80
e 45 81
e 45 91
e 46 72
e 46 73
e 46 74
e 46 75
e 46 76
e 46 77
e 46 78
e 46 79
e 46 80
e 46 81
e 47 69
e 47 72
e 47 73
e 47 74
e 47 75
e 47 76
e 47 77
e 47 78
e 47 79
e 47 80
e 47 81
e 47 100
e 48 72
e 48 73
e 48 74
e 48 75
e 48 76
e 48 77
e 48 78
e 48 79
e 48 80
e 48 81
e 49 72
e 49 73
e 49 74
e 49 75
e 49 76
e 49 77
e 49 78
e 49 79
e 49 80
e 49 81
e 50 72
e 50 73
e 50 74
e 50 75
e 50 76
e 50 77
e 50 78
e 50 79
e 50 80
e 50 81
e 50 92
e 50 98
e 51 72
e 51 73
e 51 74
e 51 75
e 51 76
e 51 77
e 51 78
e 51 79
e 51 80
e 51 81
e 52 72
e 52 73
e 52 74
e 52 75
e 52 76
e 52 77
e 52 78
e 52 79
e 52 80
e 52 81
e 53 72
e 53 73
e 53 74
e 53 75
e 53 76
e 53 77
e 53 78
e 53 79
e 53 80
e 53 81
e 54 78
e 54 79
e 54 80
e 54 81
e 54 82
e 54 83
e 54 84
e 54 85
e 54 86
e 54 87
e 54 88
e 54 89
e 54 91
e 54 95
e 55 78
e 55 79
e 55 80
e 55 81
e 55 82
e 55 83
e 55 84
e 55 85
e 55 86
e 55 87
e 55 88
e 55 89
e 55 91
e 55 98
e 56 78
e 56 79
e 56 82
e 56 83
e 56 84
e 56 85
e 56 86
e 56 87
e 56 88
e 56 89
e 56 90
e 56 91
e 56 100
e 57 78
e 57 79
e 57 82
e 57 84
e 57 85
e 57 86
e 57 87
e 57 88
e 57 89
e 57 90
e 57 91
e 57 100
e 58 78
e 58 79
e 58 82
e 58 83
e 58 84
e 58 85
e 58 86
e 58 87
e 58 88
e 58 89
e 58 90
e 58 91
e 58 99
e 59 78
e 59 79
e 59 82
e 59 83
e 59 84
e 59 85
e 59 86
e 59 87
e 59 88
e 59 89
e 59 90
e 59 91
e 59 97
e 60 78
e 60 79
e 60 82
e 60 83
e 60 84
e 60 85
e 60 86
e 60 87
e 60 88
e 60 89
e 60 90
e 60 91
e 60 100
e 61 78
e 61 79
e 61 82
e 61 83
e 61 84
e 61 85
e 61 86
e 61 87
e 61 88
e 61 89
e 61 90
e 61 91
e 62 78
e 62 79
e 62 82
e 62 83
e 62 84
e 62 85
e 62 87
e 62 88
e 62 89
e 62 90
e 62 91
e 63 78
e 63 79
e 63 82
e 63 83
e 63 84
e 63 85
e 63 86
e 63 87
e 63 88
e 63 89
e 63 90
e 63 91
e 63 96
e 63 99
e 64 78
e 64 79
e 64 82
e 64 83
e 64 84
e 64 85
e 64 86
e 64 87
e 64 88
e 64 89
e 64 90
e 64 91
e 65 78
e 65 79
e 65 82
e 65 83
e 65 84
e 65 85
e 65 86
e 65 87
e 65 88
e 65 90
e 65 91
e 65 96
e 66 78
e 66 79
e 66 82
e 66 83
e 66 84
e 66 85
e 66 86
e 66 87
e 66 88
e 66 90
e 66 91
e 66 96
e 67 78
e 67 79
e 67 82
e 67 83
e 67 84
e 67 85
e 67 86
e 67 87
e 67 88
e 67 89
e 67 90
e 67 91
e 67 98
e 68 78
e 68 79
e 68 82
e 68 84
e 68 85
e 68 86
e 68 87
e 68 88
e 68 89
e 68 90
e 68 91
e 69 78
e 69 79
e 69 80
e 69 81
e 69 82
e 69 83
e 69 84
e 69 85
e 69 86
e 69 87
e 69 88
e 69 89
e 69 90
e 69 91
e 69 92
e 69 93
e 69 94
e 70 78
e 70 79
e 70 80
e 70 81
e 70 82
e 70 83
e 70 84
e 70 85
e 70 86
e 70 87
e 70 88
e 70 90
e 70 91
e 70 92
e 70 93
e 70 94
e 71 78
e 71 79
e 71 80
e 71 81
e 71 82
e 71 83
e 71 84
e 71 85
e 71 86
e 71 87
e 71 88
e 71 89
e 71 90
e 71 91
e 71 92
e 71 93
e 71 94
e 71 98
e 72 78
e 72 79
e 72 80
e 72 81
e 72 83
e 72 84
e 72 85
e 72 86
e 72 87
e 72 88
e 72 89
e 72 90
e 72 91
e 72 92
e 72 93
e 72 94
e 73 78
e 73 79
e 73 80
e 73 81
e 73 82
e 73 83
e 73 84
e 73 85
e 73 86
e 73 87
e 73 88
e 73 89
e 73 90
e 73 91
e 73 92
e 73 93
e 73 94
e 73 95
e 73 96
e 73 97
e 73 98
e 73 99
e 73 100
e 74 78
e 74 79
e 74 80
e 74 81
e 74 82
e 74 83
e 74 84
e 74 85
e 74 86
e 74 87
e 74 88
e 74 89
e 74 90
e 74 91
e 74 92
e 74 93
e 74 94
e 74 95
e 74 96
e 74 97
e 74 98
e 74 99
e 74 100
e 75 78
e 75 79
e 75 80
e 75 81
e 75 82
e 75 83
e 75 84
e 75 85
e 75 86
e 75 87
e 75 88
e 75 89
e 75 90
e 75 91
e 75 92
e 75 93
e 75 94
e 75 95
e 75 96
e 75 98
e 75 99
e 75 100
e 76 78
e 76 79
e 76 80
e 76 81
e 76 82
e 76 83
e 76 84
e 76 85
e 76 86
e 76 87
e 76 88
e 76 89
e 76 90
e 76 91
e 76 92
e 76 93
e 76 94
e 76 95
e 76 96
e 76 97
e 76 98
e 76 99
e 76 100
e 77 78
e 77 79
e 77 80
e 77 81
e 77 82
e 77 83
e 77 84
e 77 85
e 77 86
e 77 87
e 77 88
e 77 89
e 77 90
e 77 91
e 77 92
e 77 93
e 77 94
e 77 95
e 77 96
e 77 97
e 77 98
e 77 99
e 77 100
e 78 83
e 78 84
e 78 85
e 78 86
e 78 87
e 78 88
e 78 89
e 78 90
e 78 91
e 78 92
e 78 93
e 78 94
e 78 95
e 78 96
e 78 97
e 78 98
e 78 99
e 78 100
e 79 83
e 79 84
e 79 85
e 79 86
e 79 87
e 79 88
e 79 89
e 79 90
e 79 91
e 79 92
e 79 93
e 79 94
e 79 95
e 79 96
e 79 97
e 79 98
e 79 99
e 79 100
e 80 83
e 80 84
e 80 85
e 80 86
e 80 87
e 80 88
e 80 89
e 80 90
e 80 91
e 80 92
e 80 93
e 80 94
e 80 95
e 80 96
e 80 97
e 80 98
e 80 99
e 80 100
e 81 83
e 81 84
e 81 85
e 81 86
e 81 87
e 81 88
e 81 89
e 81 90
e 81 91
e 81 92
e 81 93
e 81 94
e 81 95
e 81 96
e 81 97
e 81 98
e 81 99
e 81 100
e 82 83
e 82 84
e 82 85
e 82 89
e 82 90
e 82 91
e 82 92
e 82 93
e 82 94
e 82 95
e 82 96
e 82 97
e 82 98
e 82 99
e 83 92
e 83 93
e 83 96
e 83 97
e 83 98
e 83 99
e 83 100
e 84 92
e 84 93
e 84 96
e 84 97
e 84 98
e 84 99
e 84 100
e 85 86
e 85 87
e 85 90
e 85 91
e 85 92
e 85 93
e 85 96
e 85 97
e 85 98
e 85 99
e 85 100
e 86 94
e 86 95
e 86 98
e 86 99
e 87 92
e 87 93
e 87 98
e 87 99
e 88 92
e 88 93
e 88 98
e 88 99
e 89 91
e 89 92
e 89 93
e 89 98
e 89 99
e 90 92
e 90 93
e 90 94
e 90 95
e 90 96
e 90 100
e 91 92
e 91 93
e 91 94
e 91 95
e 91 96
e 92 100
e 93 100
e 94 100
e 95 100
e 97 100
